job_count = 26 ;
duration = [|21, 4, 7, 1|8, 16, 10, 8|4, 12, 7, 5|29, 28, 16, 7|4, 6, 15, 9|15, 21, 14, 6|23, 4, 9, 7|29, 28, 13, 7|20, 18, 9, 8|11, 15, 15, 5|28, 25, 9, 1|28, 23, 12, 8|19, 23, 2, 3|10, 27, 6, 9|31, 16, 2, 7|38, 22, 18, 4|36, 7, 16, 6|5, 4, 10, 8|19, 23, 18, 1|17, 7, 13, 1|7, 28, 17, 6|37, 20, 10, 3|25, 23, 17, 7|39, 6, 7, 6|10, 18, 6, 4|37, 18, 2, 5|] ;
machine_count = 4 ;
cost = [|18, 37, 48, 72|18, 36, 53, 42|15, 37, 54, 77|17, 23, 33, 66|10, 28, 55, 55|19, 35, 41, 55|18, 20, 54, 53|19, 29, 54, 61|16, 21, 52, 62|12, 30, 45, 67|14, 30, 46, 57|14, 39, 34, 79|14, 39, 49, 63|13, 22, 39, 49|14, 33, 50, 50|18, 39, 57, 68|10, 24, 46, 78|12, 26, 55, 56|12, 29, 38, 54|10, 37, 59, 53|13, 24, 45, 77|12, 31, 34, 51|16, 24, 54, 52|19, 32, 57, 67|16, 30, 52, 57|12, 23, 45, 65|] ;
deadline = [54, 54, 54, 54, 54, 54, 54, 54, 54, 54, 54, 54, 54, 54, 54, 54, 54, 54, 54, 54, 54, 54, 54, 54, 54, 54] ;
release = [0, 0, 0, 0, 0, 0, 0, 0, 0, 0, 0, 0, 0, 0, 0, 0, 0, 0, 0, 0, 0, 0, 0, 0, 0, 0] ;
resource = [|7, 7, 7, 7|9, 9, 9, 9|4, 4, 4, 4|4, 4, 4, 4|8, 8, 8, 8|2, 2, 2, 2|1, 1, 1, 1|7, 7, 7, 7|7, 7, 7, 7|9, 9, 9, 9|6, 6, 6, 6|1, 1, 1, 1|7, 7, 7, 7|3, 3, 3, 3|3, 3, 3, 3|5, 5, 5, 5|3, 3, 3, 3|9, 9, 9, 9|4, 4, 4, 4|9, 9, 9, 9|2, 2, 2, 2|7, 7, 7, 7|5, 5, 5, 5|4, 4, 4, 4|7, 7, 7, 7|8, 8, 8, 8|] ;
capacities = [10, 10, 10, 10] ;
